(declare-sort $$unsorted 0)
(declare-fun tptp.op ($$unsorted $$unsorted) $$unsorted)
(assert (forall ((X0 $$unsorted) (X1 $$unsorted) (X2 $$unsorted) (X3 $$unsorted)) (= (tptp.op X0 X0) (tptp.op (tptp.op X1 (tptp.op X1 X2)) X3))))
(assert (not (forall ((X0 $$unsorted) (X1 $$unsorted) (X2 $$unsorted) (X3 $$unsorted)) (= (tptp.op X0 X0) (tptp.op (tptp.op X1 (tptp.op X2 X2)) X2)))))
(set-info :filename Equation3896_implies_Equation3907)
(check-sat-assuming ( true ))
